Gurobi 12.0.3:   lim:time = 14400
  mip:bestbound = 1
Set parameter LogToConsole to value 1
  tech:outlev = 1
Set parameter InfUnbdInfo to value 1
Gurobi Optimizer version 12.0.3 build v12.0.3rc0 (win64 - Windows 10.0 (19045.2))

CPU model: Intel(R) Core(TM) i7-10700 CPU @ 2.90GHz, instruction set [SSE2|AVX|AVX2]
Thread count: 8 physical cores, 16 logical processors, using up to 16 threads

Non-default parameters:
TimeLimit  14400
InfUnbdInfo  1

Optimize a model with 297 rows, 336 columns and 1803 nonzeros
Model fingerprint: 0xcea294e8
Model has 3 quadratic constraints
Variable types: 23 continuous, 313 integer (0 binary)
Coefficient statistics:
  Matrix range     [1e+00, 1e+05]
  QMatrix range    [1e+00, 1e+00]
  QLMatrix range   [2e+00, 2e+01]
  Objective range  [4e+00, 9e+01]
  Bounds range     [1e+00, 1e+02]
  RHS range        [1e+00, 1e+05]
  QRHS range       [1e+02, 1e+02]
Presolve removed 24 rows and 16 columns
Presolve time: 0.01s
Presolved: 438 rows, 455 columns, 2448 nonzeros
Variable types: 15 continuous, 440 integer (412 binary)
Found heuristic solution: objective 441.8700000
Found heuristic solution: objective 410.4600000

Root relaxation: objective 1.407133e+02, 38 iterations, 0.00 seconds (0.00 work units)

    Nodes    |    Current Node    |     Objective Bounds      |     Work
 Expl Unexpl |  Obj  Depth IntInf | Incumbent    BestBd   Gap | It/Node Time

     0     0  140.71327    0   21  410.46000  140.71327  65.7%     -    0s
H    0     0                     401.5200000  140.71327  65.0%     -    0s
     0     0  196.15429    0   18  401.52000  196.15429  51.1%     -    0s
     0     0  211.49000    0   16  401.52000  211.49000  47.3%     -    0s
     0     0  211.49000    0   16  401.52000  211.49000  47.3%     -    0s
H    0     0                     394.5700000  211.49000  46.4%     -    0s
     0     0  211.49000    0   16  394.57000  211.49000  46.4%     -    0s
H    0     0                     386.2100000  211.49000  45.2%     -    0s
     0     0  211.49000    0   16  386.21000  211.49000  45.2%     -    0s
H    0     0                     319.3700000  211.49000  33.8%     -    0s
H    0     0                     317.1100000  211.49000  33.3%     -    0s
     0     0  211.49000    0   14  317.11000  211.49000  33.3%     -    0s
     0     2  211.49000    0   14  317.11000  211.49000  33.3%     -    0s
H   41    64                     313.2300000  211.49519  32.5%  10.6    0s
H  113   127                     293.1000000  211.49519  27.8%   6.5    0s
*  618   290              11     291.6000000  222.39153  23.7%   5.9    0s
*  734   311              11     288.3400000  222.40634  22.9%   5.8    0s
* 1074   353              11     287.7000000  231.62000  19.5%   5.8    0s
* 1088   353              19     282.1500000  231.62000  17.9%   5.8    0s
* 1337   373              11     271.4500000  231.66220  14.7%   5.7    0s
* 1472   318               8     267.9500000  236.50000  11.7%   5.8    0s
* 1473   318               8     267.7300000  236.50000  11.7%   5.8    0s
* 1817   230              15     265.1200000  241.65355  8.85%   5.9    0s
* 2129     0              11     264.0700000  248.21254  6.01%   6.0    0s

Cutting planes:
  Learned: 6
  Gomory: 4
  Cover: 4
  Implied bound: 16
  Flow cover: 1
  Inf proof: 26
  RLT: 4

Explored 2414 nodes (13962 simplex iterations) in 0.34 seconds (0.27 work units)
Thread count was 16 (of 16 available processors)

Solution count 10: 264.07 265.12 267.73 ... 293.1

Optimal solution found (tolerance 1.00e-04)
Best objective 2.640700000000e+02, best bound 2.640700000000e+02, gap 0.0000%

AMPL MP initial flat model has 336 variables (0 integer, 313 binary);
Objectives: 1 linear; 
Constraints:  297 linear; 3 quadratic;

AMPL MP final model has 336 variables (0 integer, 313 binary);
Objectives: 1 linear; 
Constraints:  297 linear; 3 quadratic;


-----RESULTS INFO-----
running_time:  0.36
TC.best_bound:  264.07
TC:  264.07
MIP Gap (%):  0
=== Vehicle Routes ===
Vehicle 1: 0 → 19
Vehicle 2: 0 → 3
Vehicle 2: 1 → 2
Vehicle 2: 2 → 19
Vehicle 2: 3 → 17
Vehicle 2: 11 → 1
Vehicle 2: 12 → 11
Vehicle 2: 17 → 12
Vehicle 3: 0 → 19

=== Full Vehicle Routes ===
Vehicle 1: 0 → 0 (0<100)
Vehicle 2: 0 → 3 → 17 → 12 → 11 → 1 → 2 → 0 (96<100)
Vehicle 3: 0 → 0 (0<100)
Arc used by MRT line: y variables:
Customer assigment to PL: u variables:
4 17
5 17
6 12
7 11
8 17
9 11
Node is served by regular vehicle: g variables:
1
2
3
17
11
12
Customer assigment to Home delivery: gm variables:
1
2
3
Node total demands: ntd variables:
1 4 1
2 20 1
3 2 1
7 0 0
8 0 0
9 0 0
16 0 0
17 37 1
18 0 0
10 0 0
11 24 1
12 9 1
13 0 0
14 0 0
15 0 0
Customer's demand delivered to PL: l variables:
4
5
6
7
8
9
Lockers load <= capacity:
0 <= 84
37 <= 77
0 <= 100
0 <= 97
24 <= 100
9 <= 74
0 <= 74
0 <= 99
0 <= 85
